77 41 96 15 115 38 81 113 80 192 160 46 3 67 154 130 16 92 29 123 50 34 9 91 11 175 7 111 6 165 188 174 97 109 88 23 45 89 56 164 186 85 125 107 61 30 105 146 51 8 155 166 55 182 86 162 183 24 118 171 74 127 198 35 158 28 108 136 90 191 20 142 103 19 13 53 193 173 134 71 22 40 179 58 197 100 133 0 152 196 151 62 12 70 176 114 42 112 4 178 184 21 2 60 68 163 1 84 95 147 26 195 72 27 181 64 54 43 157 132 57 102 131 145 63 10 37 139 65 189 48 128 39 47 79 126 106 98 31 161 32 49 69 137 18 17 144 76 5 101 141 44 117 121 73 93 119 185 169 120 124 168 87 52 149 167 129 78 150 140 25 36 59 83 153 66 156 194 172 104 94 14 199 187 180 33 148 110 75 159 143 99 122 82 116 135 170 190 138 177